(set-logic QF_SLIA)
(declare-fun var0 () String)
(assert (not (str.in_re var0 (re.++ ((_ re.loop 5 256) (re.++ (re.union (str.to_re "zKt") (re.union (str.to_re "~") (re.union (str.to_re "Gz") (str.to_re "(o")))) (re.++ (re.union (str.to_re "UiJ") (re.union (str.to_re "NJ") (re.union (str.to_re "P\u0022") (str.to_re "u\\Q")))) (re.++ (re.union (str.to_re "J$") (re.union (str.to_re "o72") (re.union (str.to_re "<") (str.to_re "6k")))) (re.union (str.to_re "\\$1") (re.union (str.to_re "\\") (re.union (str.to_re "!V") (str.to_re "]Kr")))))))) (re.++ ((_ re.loop 2 857) (re.++ (re.union (str.to_re "*n") (re.union (str.to_re "!3V") (re.union (str.to_re "+") (str.to_re "G")))) (re.++ (re.union (str.to_re "T#") (re.union (str.to_re "=s") (re.union (str.to_re ";") (str.to_re "lb9")))) (re.++ (re.union (str.to_re "kv^") (re.union (str.to_re "Pp") (re.union (str.to_re "5{") (str.to_re "d")))) (re.union (str.to_re "{") (re.union (str.to_re "+") (re.union (str.to_re "5t") (str.to_re "iX")))))))) (re.++ ((_ re.loop 2 645) (re.++ (re.union (str.to_re "l=x") (re.union (str.to_re "4A") (re.union (str.to_re "3") (str.to_re "\\*P")))) (re.++ (re.union (str.to_re "R%(") (re.union (str.to_re "E9^") (re.union (str.to_re "Y-") (str.to_re "g")))) (re.++ (re.union (str.to_re "2") (re.union (str.to_re "0") (re.union (str.to_re "7/\\") (str.to_re "&")))) (re.union (str.to_re "l7") (re.union (str.to_re "EX\\") (re.union (str.to_re "4(") (str.to_re "u\u00223")))))))) ((_ re.loop 9 514) (re.++ (re.union (str.to_re "v") (re.union (str.to_re "}I") (re.union (str.to_re "=#") (str.to_re "i")))) (re.++ (re.union (str.to_re ":") (re.union (str.to_re "S\u0022R") (re.union (str.to_re "Rrg") (str.to_re "j!3")))) (re.++ (re.union (str.to_re "a3") (re.union (str.to_re "c") (re.union (str.to_re "fm") (str.to_re ">_")))) (re.union (str.to_re "S1e") (re.union (str.to_re "-F+") (re.union (str.to_re "9") (str.to_re "w"))))))))))))))
(assert (not (str.in_re var0 (re.++ ((_ re.loop 8 627) (re.++ (re.union (str.to_re "<2") (re.union (str.to_re "Xv:") (re.union (str.to_re "=w") (str.to_re ":")))) (re.++ (re.union (str.to_re "9E*") (re.union (str.to_re "]") (re.union (str.to_re "(") (str.to_re "S)")))) (re.++ (re.union (str.to_re "3") (re.union (str.to_re "geP") (re.union (str.to_re "XM1") (str.to_re "C")))) (re.union (str.to_re "A:") (re.union (str.to_re "&") (re.union (str.to_re "K") (str.to_re "vm")))))))) (re.++ ((_ re.loop 7 407) (re.++ (re.union (str.to_re "O") (re.union (str.to_re "5") (re.union (str.to_re "Sm{") (str.to_re "j\u0022")))) (re.++ (re.union (str.to_re "X") (re.union (str.to_re ",L") (re.union (str.to_re "VL") (str.to_re "~VE")))) (re.++ (re.union (str.to_re "_") (re.union (str.to_re "&") (re.union (str.to_re "f@") (str.to_re "#")))) (re.union (str.to_re "&#") (re.union (str.to_re "TN*") (re.union (str.to_re "$I") (str.to_re "s")))))))) (re.++ ((_ re.loop 1 546) (re.++ (re.union (str.to_re "cI") (re.union (str.to_re "55") (re.union (str.to_re "c") (str.to_re "r")))) (re.++ (re.union (str.to_re "cz") (re.union (str.to_re "TS") (re.union (str.to_re "'`o") (str.to_re "iW")))) (re.++ (re.union (str.to_re "6\u0022") (re.union (str.to_re ">95") (re.union (str.to_re "\\N") (str.to_re "U&")))) (re.union (str.to_re "kOW") (re.union (str.to_re "Y?\u0022") (re.union (str.to_re "eSA") (str.to_re "J@")))))))) ((_ re.loop 2 344) (re.++ (re.union (str.to_re "5|t") (re.union (str.to_re "f") (re.union (str.to_re "T{") (str.to_re "pd")))) (re.++ (re.union (str.to_re "y1K") (re.union (str.to_re "i6") (re.union (str.to_re "UU") (str.to_re "$")))) (re.++ (re.union (str.to_re "v,") (re.union (str.to_re "s`F") (re.union (str.to_re "<P") (str.to_re "&AR")))) (re.union (str.to_re "d:") (re.union (str.to_re "}") (re.union (str.to_re "8BC") (str.to_re "u'."))))))))))))))
(assert (not (str.in_re var0 (re.++ (re.* re.allchar) (re.++ (re.union (str.to_re "<") (re.union (str.to_re ">") (re.union (str.to_re "'") (re.union (str.to_re "\u0022") (str.to_re "&"))))) (re.* re.allchar))))))
(assert (<= 50 (str.len var0)))
(check-sat)
(get-model)
